26,68
81,57
88,15
69,64
58,25
17,60
1,69
58,5
16,24
43,40
12,60
32,64
91,38
3,51
17,28
94,43
97,75
52,85
90,21
1,48
46,19
8,0
88,19
5,57
43,0
49,7
61,33
23,4
71,27
55,88
7,49
83,4
24,35
42,66
8,43
15,55